21432
1 1 1 1 0 1 1 1 0 0 0 1 0 1 1 0 0 1 0 0 1 1 0 1 1 0 0 1 0 0 
20 11 13 2 20 5 2 24 14 17 24 20 20 20 3 14 14 17 5 11 2 0 5 3 5 20 2 24 5 24 5 11 6 11 20 20 24 24 0 14 0 14 24 14 24 14 0 13 27 14 5 14 14 5 13 20 17 11 0 14 0 5 20 11 11 11 24 0 5 24 20 6 11 17 24 20 24 20 14 24 20 7 13 17 17 17 17 7 20 5 2 24 17 11 17 5 2 2 21 13 13 17 17 11 2 5 17 11 14 14 17 1 2 11 11 21 5 5 5 11 5 13 27 13 13 0 0 27 0 21 0 11 0 21 13 14 7 27 13 17 0 13 13 2 2 27 0 0 2 0 
